0 9 5 8 4 1 8 1 4 7 4 2 1
9 0 3 9 7 3 7 7 2 7 4 1 4
5 3 0 7 3 3 3 2 9 5 3 9 6
8 9 7 0 3 2 3 6 9 7 6 3 8
4 7 3 3 0 8 8 3 8 7 3 3 2
1 3 3 2 8 0 3 6 1 1 6 2 8
8 7 3 3 8 3 0 2 7 8 5 4 3
1 7 2 6 3 6 2 0 1 1 2 6 6
4 2 9 9 8 1 7 1 0 5 2 3 5
7 7 5 7 7 1 8 1 5 0 1 7 6
4 4 3 6 3 6 5 2 2 1 0 1 1
2 1 9 3 3 2 4 6 3 7 1 0 1
1 4 6 8 2 8 3 6 5 6 1 1 0
